NAME : local_10
TYPE : ATSP
DIMENSION : 9
EDGE_WEIGHT_TYPE : EXPLICIT
EDGE_WEIGHT_FORMAT : FULL_MATRIX
EDGE_WEIGHT_SECTION
0 10000000 524 10000000 10000000 457 10000000 10000000 10000000 
0 0 893 816 596 983 10000000 982 266 
0 893 0 10000000 10000000 502 1035 566 927 
0 816 10000000 0 524 10000000 10000000 10000000 775 
0 596 10000000 524 0 10000000 964 10000000 736 
0 983 502 10000000 10000000 0 10000000 10000000 825 
0 10000000 1046 10000000 964 10000000 0 572 10000000 
0 982 566 10000000 10000000 10000000 572 0 10000000 
0 10000000 10000000 10000000 10000000 10000000 10000000 10000000 0 
EOF